4 
5  46 
6  01 16 31 46 58 
7  05 13 21 27 35 42 50 57 
8  05 12 20 27 35 42 50 57 
9  05 12 20 27 35 42 50 57 
10  05 12 20 27 35 42 50 57 
11  05 12 20 27 35 42 50 57 
12  05 12 20 27 35 42 50 57 
13  05 12 20 27 36 44 51 58 
14  06 13 21 28 36 43 51 58 
15  06 13 21 28 36 43 50 58 
16  05 13 20 28 35 43 50 58 
17  05 13 20 28 35 43 50 58 
18  05 13 20 28 35 43 50 58 
19  05 13 20 28 34 41 48 57 
20  05 13 20 27 35 42 49 57 
21  04 17 32 47 
22  02 17 32 47 
23  00 15 27 38 
0 
1 
